p tw 83 96
1 2
2 13
3 4
4 5
4 6
5 6
6 7
7 8
8 9
9 10
9 11
10 11
10 14
11 12
12 81
13 24
14 15
15 16
16 46
17 18
18 19
19 20
20 21
21 22
22 23
23 25
24 35
25 26
26 27
27 28
28 29
29 30
30 31
31 32
31 60
32 33
33 34
33 40
34 36
35 46
36 37
37 38
37 40
38 39
39 40
40 41
41 42
42 43
43 44
44 45
45 47
45 52
46 57
47 48
48 49
49 50
49 52
50 51
51 52
52 53
53 54
54 55
55 56
55 58
56 58
56 19
57 68
58 59
59 81
60 61
61 62
62 63
62 64
63 81
64 65
65 66
66 67
67 69
68 79
69 70
70 71
71 72
71 74
72 73
73 74
74 75
75 76
76 77
77 78
77 67
78 80
79 83
80 81
81 82
83 3
83 17
